p tw 45 57
6 11
11 12
11 16
16 17
16 21
21 22
21 26
26 27
26 31
31 32
31 36
41 42
2 7
7 8
7 12
12 17
17 18
17 22
22 23
22 27
32 33
32 37
37 38
37 42
42 43
3 4
3 8
8 9
13 14
13 18
18 19
18 23
23 24
33 34
33 38
38 39
38 43
43 44
4 5
4 9
9 10
14 15
14 19
19 20
19 24
24 25
24 29
29 30
29 34
34 35
39 44
44 45
15 20
25 30
30 35
35 40
40 45
